NAME : cgl_70.9235.tour
COMMENT : Length = 9235
COMMENT : Found by LKH-3 [Keld Helsgaun] Fri Nov  8 17:38:20 2024
TYPE : TOUR
DIMENSION : 71
TOUR_SECTION
61
63
64
65
66
69
68
67
60
55
56
54
58
59
57
6
5
3
4
2
1
71
48
47
46
45
44
37
38
39
43
40
42
41
27
28
26
21
22
20
19
18
13
16
17
14
15
12
8
10
7
11
9
23
24
25
29
32
31
35
34
33
30
36
49
50
51
52
53
70
62
-1
EOF
